data;
param unidadeDeTempo:= 1;
param dimSquare:= 5000;
param BIGM:= 1000000;
param dL:= 1;
param tMax:= 10;
param dronesMinFinalCharge:= 50;

set P :=  P1 P2 P3 P4 P5 P6 P7 P8 P9 P10;
param:   pointDX pointDY pointPackageCAP pointToDeliverDX pointToDeliverDY :=
P1         1400      3100        0.2  	        700	       800  
P2         2300      1400        0.1  	        700	       800  
P3         1200      3300        0.2  	        700	       800  
P4         4300      1100         1  	        200	       600  
P5         1600      2100        0.9  	        200	       600  
P6         2900      1500        0.9  	        200	       600  
P7         1700      1100         1  	        500	       300  
P8          700       800         1  	        200	       500  
P9          200       600        0.2            4100           4000 
P10         500       300        0.6            2200           2100;

set EP := 1 2 3 4 5;
param:   ePDX ePDY :=
1 	   700    800 
2          200    600 
3          500    300 
4         4100   4000
5	  2200	 2100;

set DRONE := D1 D2 D3 D4 D5 D6 D7;
param:   droneMS droneMaxCap droneVEC droneFEC droneDoD droneBROnArr droneRateOfCharge  droneInitialDX droneInitialDY:=
D1        80       5 	 	3        2 	30       90			4		1200            1760
D2        80       5 	 	3        2 	30       90			4		2230            2440
D3       100 	   4 		4   	 2  	30 	 90			4		1700 		3010
D4       100 	   4 		4   	 2  	30 	 90			4		1950 		1970
D5       100 	   4 		4   	 2  	30 	 90			4		 370 		 490
D6       120 	   3 		5	 2  	30 	 90			4		1030 		1130
D7       120 	   3 		5	 2  	30 	 90			4		2110 		2800;
	
param droneIsDeliveringAtBegin:
    P1 P2 P3 P4 P5 P6 P7 P8 P9 P10:=
D1  1 0 0 0 0 0 0 0 0 0
D2  0 0 0 0 0 0 0 0 0 0
D3  0 0 0 0 0 0 0 0 0 0 
D4  0 0 0 0 0 0 0 0 0 0
D5  0 0 0 0 0 0 0 0 0 0 
D6  0 0 0 0 0 0 0 0 0 0 
D7  0 0 0 0 0 0 0 0 0 0;
